
Gurobi 11.0.3 (linux64) logging started Sat Nov 23 18:48:02 2024

Set parameter LogFile to value "/home/yihong/Coding/OR_SUC/SUC_results_bigM100000_thread4/case24_ieee_rts_theta0.5_epsilon0.025_gurobi_seed1000000_num_gen100_N_WDR150_load_scaling_factor1_proposed_T24quadra_cost.txt"
Set parameter TimeLimit to value 3600
Gurobi Optimizer version 11.0.3 build v11.0.3rc0 (linux64 - "Ubuntu 20.04.6 LTS")

CPU model: AMD EPYC 7532 32-Core Processor, instruction set [SSE2|AVX|AVX2]
Thread count: 64 physical cores, 128 logical processors, using up to 4 threads

Optimize a model with 53864 rows, 29911 columns and 911262 nonzeros
Model fingerprint: 0x28bc5700
Model has 2400 quadratic constraints
Variable types: 27511 continuous, 2400 integer (2400 binary)
Coefficient statistics:
  Matrix range     [3e-04, 2e+03]
  QMatrix range    [2e-03, 8e-03]
  QLMatrix range   [2e-01, 6e+01]
  Objective range  [1e+00, 1e+00]
  Bounds range     [1e+00, 1e+00]
  RHS range        [1e+00, 9e+03]
Presolve removed 43686 rows and 12773 columns
Presolve time: 0.32s
Presolved: 10178 rows, 17138 columns, 54101 nonzeros
Presolved model has 2400 quadratic constraint(s)
Variable types: 14738 continuous, 2400 integer (2400 binary)

Root relaxation: objective 8.017529e+04, 8599 iterations, 0.22 seconds (0.30 work units)

    Nodes    |    Current Node    |     Objective Bounds      |     Work
 Expl Unexpl |  Obj  Depth IntInf | Incumbent    BestBd   Gap | It/Node Time

     0     0 80175.2945    0    -          - 80175.2945      -     -    0s
     0     0 489274.907    0  562          - 489274.907      -     -    1s
     0     0 683677.175    0  574          - 683677.175      -     -    1s
     0     0 683695.986    0  271          - 683695.986      -     -    1s
     0     0 683832.518    0  269          - 683832.518      -     -    1s
     0     0 683832.743    0  210          - 683832.743      -     -    1s
     0     0 683835.691    0  183          - 683835.691      -     -    2s
     0     0 683837.147    0  185          - 683837.147      -     -    2s
     0     0 683837.147    0  185          - 683837.147      -     -    2s
     0     0 683838.293    0  185          - 683838.293      -     -    2s
     0     2 683838.293    0  185          - 683838.293      -     -    2s
   110   240 683962.822   23  113          - 683839.632      -  40.8    5s
H  234   240                    684028.02659 683839.632  0.03%  30.2    5s
*  234   240              71    684028.02659 683839.632  0.03%  30.2    5s

Cutting planes:
  Gomory: 44
  Lift-and-project: 1
  Implied bound: 205
  MIR: 79
  Flow cover: 88
  RLT: 228

Explored 247 nodes (29294 simplex iterations) in 5.91 seconds (8.01 work units)
Thread count was 4 (of 128 available processors)

Solution count 2: 684028 684028 

Optimal solution found (tolerance 1.00e-03)
Warning: max constraint violation (2.6593e-07) exceeds tolerance
Best objective 6.840280265933e+05, best bound 6.838396324771e+05, gap 0.0275%
